NAME : AA35.1299786.tour
COMMENT : Cost = 0_1299786
COMMENT : Found by LKH [Keld Helsgaun] Sun Apr 23 15:14:35 2017
TYPE : TOUR
DIMENSION : 73
TOUR_SECTION
1
31
66
25
60
2
37
4
39
24
59
23
58
9
7
42
44
14
49
16
51
21
5
40
56
34
69
73
17
52
10
45
15
50
32
12
67
47
35
70
29
64
26
61
22
57
28
63
72
18
53
13
48
11
46
36
71
27
62
19
54
33
20
68
55
6
41
8
43
3
38
30
65
-1
EOF
